! B3LYP D3 def2-TZVP def2/J RIJCOSX Opt Freq noautostart miniprint nopop
%maxcore  1000
%pal nprocs   8 end
* xyz   0   1
O      0.00000000    0.00000000   -0.11085125
H      0.00000000   -0.78383672    0.44340501
H      0.00000000    0.78383672    0.44340501
 *
