%nproc=8
%mem=20GB
%chk=HCN-irc.chk
#p b3lyp em=gd3bj 6-31G* irc=calcfc
 
Final Geometry
 
0 1
 N        -0.55218594      0.05136928      0.00000000
 C         0.63146502     -0.08632759      0.00000000
 H         0.36798476      1.07883290      0.00000000
 
